c ind 107 109 11 119 137 18 21 22 232 25 0
c ind 301 326 332 34 347 348 37 388 393 395 0
c ind 400 407 410 419 422 431 48 50 52 54 0
c ind 6 69 7 80 91 97 0
p cnf 432 1830
-1 2 0
-1 424 0
-10 -11 6 0
-10 -6 11 0
-100 -11 54 0
-100 -54 11 0
-101 -102 25 0
-101 102 44 0
-102 -11 97 0
-102 -97 11 0
-103 -104 105 0
-103 104 44 0
-104 100 0
-104 59 0
-105 -106 25 0
-105 106 44 0
-106 -107 11 0
-106 -11 107 0
-108 -109 11 0
-108 -11 109 0
-110 -111 135 0
-110 111 138 0
-111 -31 112 0
-111 31 58 0
-112 -39 25 0
-112 39 113 0
-113 -41 114 0
-113 41 58 0
-114 -44 115 0
-114 44 116 0
-115 -56 11 0
-115 56 58 0
-116 -58 117 0
-116 58 120 0
-117 -118 25 0
-117 118 11 0
-118 -11 119 0
-118 -119 11 0
-12 -13 346 0
-12 13 349 0
-120 -63 121 0
-120 63 122 0
-121 -68 25 0
-121 68 58 0
-122 -71 25 0
-122 71 123 0
-123 -75 124 0
-123 75 125 0
-124 -79 25 0
-124 79 58 0
-125 -82 126 0
-125 82 127 0
-126 -85 25 0
-126 85 58 0
-127 -87 128 0
-127 87 129 0
-128 -90 25 0
-128 90 58 0
-129 -93 130 0
-129 93 131 0
-13 14 0
-13 327 0
-130 -96 25 0
-130 96 58 0
-131 -99 132 0
-131 99 133 0
-132 -102 25 0
-132 102 58 0
-133 -104 134 0
-133 104 58 0
-134 -106 25 0
-134 106 58 0
-135 -136 108 0
-135 136 25 0
-136 -11 137 0
-136 -137 11 0
-138 -139 108 0
-138 139 161 0
-139 -31 140 0
-139 31 63 0
-14 -15 23 0
-14 15 108 0
-140 -39 25 0
-140 39 141 0
-141 -41 142 0
-141 41 63 0
-142 -44 143 0
-142 44 144 0
-143 -56 25 0
-143 56 63 0
-144 -58 145 0
-144 58 146 0
-145 -118 11 0
-145 118 25 0
-146 -63 147 0
-146 63 148 0
-147 -68 25 0
-147 68 63 0
-148 -71 25 0
-148 71 149 0
-149 -75 150 0
-149 75 151 0
-15 16 19 0
-150 -79 25 0
-150 79 63 0
-151 -82 152 0
-151 82 153 0
-152 -85 25 0
-152 85 63 0
-153 -87 154 0
-153 87 155 0
-154 -90 25 0
-154 90 63 0
-155 -93 156 0
-155 93 157 0
-156 -96 25 0
-156 96 63 0
-157 -99 158 0
-157 99 159 0
-158 -102 25 0
-158 102 63 0
-159 -104 160 0
-159 104 63 0
-16 -17 0
-160 -106 11 0
-160 106 63 0
-161 -162 108 0
-161 162 185 0
-162 -31 163 0
-162 31 71 0
-163 -39 25 0
-163 39 164 0
-164 -41 165 0
-164 41 71 0
-165 -44 166 0
-165 44 167 0
-166 -56 25 0
-166 56 71 0
-167 -58 25 0
-167 58 168 0
-168 -63 169 0
-168 63 170 0
-169 -68 11 0
-169 68 71 0
-17 -18 7 0
-17 -7 18 0
-170 -71 171 0
-170 71 173 0
-171 -172 25 0
-171 172 11 0
-172 -11 69 0
-172 -69 11 0
-173 -75 174 0
-173 75 175 0
-174 -79 25 0
-174 79 71 0
-175 -82 176 0
-175 82 177 0
-176 -85 25 0
-176 85 71 0
-177 -87 178 0
-177 87 179 0
-178 -90 25 0
-178 90 71 0
-179 -93 180 0
-179 93 181 0
-180 -96 25 0
-180 96 71 0
-181 -99 182 0
-181 99 183 0
-182 -102 25 0
-182 102 71 0
-183 -104 184 0
-183 104 71 0
-184 -106 25 0
-184 106 71 0
-185 -186 108 0
-185 186 208 0
-186 -31 187 0
-186 31 75 0
-187 -39 25 0
-187 39 188 0
-188 -41 189 0
-188 41 75 0
-189 -44 190 0
-189 44 191 0
-19 -20 0
-190 -56 25 0
-190 56 75 0
-191 -58 25 0
-191 58 192 0
-192 -63 193 0
-192 63 194 0
-193 -68 25 0
-193 68 75 0
-194 -71 195 0
-194 71 196 0
-195 -172 11 0
-195 172 25 0
-196 -75 197 0
-196 75 198 0
-197 -79 25 0
-197 79 75 0
-198 -82 199 0
-198 82 200 0
-199 -85 25 0
-199 85 75 0
-2 3 0
-2 396 0
-20 -21 22 0
-20 -22 21 0
-200 -87 201 0
-200 87 202 0
-201 -90 25 0
-201 90 75 0
-202 -93 203 0
-202 93 204 0
-203 -96 25 0
-203 96 75 0
-204 -99 205 0
-204 99 206 0
-205 -102 25 0
-205 102 75 0
-206 -104 207 0
-206 104 75 0
-207 -106 25 0
-207 106 75 0
-208 -209 230 0
-208 209 233 0
-209 -31 210 0
-209 31 82 0
-210 -39 25 0
-210 39 211 0
-211 -41 212 0
-211 41 82 0
-212 -44 213 0
-212 44 214 0
-213 -56 25 0
-213 56 82 0
-214 -58 25 0
-214 58 215 0
-215 -63 216 0
-215 63 217 0
-216 -68 25 0
-216 68 82 0
-217 -71 25 0
-217 71 218 0
-218 -75 219 0
-218 75 220 0
-219 -79 11 0
-219 79 82 0
-220 -82 221 0
-220 82 222 0
-221 -85 25 0
-221 85 82 0
-222 -87 223 0
-222 87 224 0
-223 -90 25 0
-223 90 82 0
-224 -93 225 0
-224 93 226 0
-225 -96 25 0
-225 96 82 0
-226 -99 227 0
-226 99 228 0
-227 -102 25 0
-227 102 82 0
-228 -104 229 0
-228 104 82 0
-229 -106 25 0
-229 106 82 0
-23 -24 11 0
-23 24 26 0
-230 -231 11 0
-230 231 108 0
-231 -11 232 0
-231 -232 11 0
-233 -234 108 0
-233 234 255 0
-234 -31 235 0
-234 31 87 0
-235 -39 25 0
-235 39 236 0
-236 -41 237 0
-236 41 87 0
-237 -44 238 0
-237 44 239 0
-238 -56 25 0
-238 56 87 0
-239 -58 25 0
-239 58 240 0
-24 -21 25 0
-24 -25 21 0
-240 -63 241 0
-240 63 242 0
-241 -68 25 0
-241 68 87 0
-242 -71 25 0
-242 71 243 0
-243 -75 244 0
-243 75 245 0
-244 -79 25 0
-244 79 87 0
-245 -82 246 0
-245 82 247 0
-246 -85 11 0
-246 85 87 0
-247 -87 248 0
-247 87 249 0
-248 -90 25 0
-248 90 87 0
-249 -93 250 0
-249 93 251 0
-25 0
-250 -96 25 0
-250 96 87 0
-251 -99 252 0
-251 99 253 0
-252 -102 25 0
-252 102 87 0
-253 -104 254 0
-253 104 87 0
-254 -106 25 0
-254 106 87 0
-255 -256 108 0
-255 256 277 0
-256 -31 257 0
-256 31 93 0
-257 -39 25 0
-257 39 258 0
-258 -41 259 0
-258 41 93 0
-259 -44 260 0
-259 44 261 0
-26 -27 29 0
-26 27 108 0
-260 -56 25 0
-260 56 93 0
-261 -58 25 0
-261 58 262 0
-262 -63 263 0
-262 63 264 0
-263 -68 25 0
-263 68 93 0
-264 -71 25 0
-264 71 265 0
-265 -75 266 0
-265 75 267 0
-266 -79 25 0
-266 79 93 0
-267 -82 268 0
-267 82 269 0
-268 -85 25 0
-268 85 93 0
-269 -87 270 0
-269 87 271 0
-27 16 0
-27 28 0
-270 -90 11 0
-270 90 93 0
-271 -93 272 0
-271 93 273 0
-272 -96 25 0
-272 96 93 0
-273 -99 274 0
-273 99 275 0
-274 -102 25 0
-274 102 93 0
-275 -104 276 0
-275 104 93 0
-276 -106 25 0
-276 106 93 0
-277 -278 299 0
-277 278 302 0
-278 -31 279 0
-278 31 99 0
-279 -39 25 0
-279 39 280 0
-28 -11 7 0
-28 -7 11 0
-280 -41 281 0
-280 41 99 0
-281 -44 282 0
-281 44 283 0
-282 -56 25 0
-282 56 99 0
-283 -58 25 0
-283 58 284 0
-284 -63 285 0
-284 63 286 0
-285 -68 25 0
-285 68 99 0
-286 -71 25 0
-286 71 287 0
-287 -75 288 0
-287 75 289 0
-288 -79 25 0
-288 79 99 0
-289 -82 290 0
-289 82 291 0
-29 -30 108 0
-29 30 110 0
-290 -85 25 0
-290 85 99 0
-291 -87 292 0
-291 87 293 0
-292 -90 25 0
-292 90 99 0
-293 -93 294 0
-293 93 295 0
-294 -96 11 0
-294 96 99 0
-295 -99 296 0
-295 99 297 0
-296 -102 25 0
-296 102 99 0
-297 -104 298 0
-297 104 99 0
-298 -106 25 0
-298 106 99 0
-299 -300 25 0
-299 300 108 0
-3 -4 8 0
-3 4 394 0
-30 -31 38 0
-30 31 44 0
-300 -11 301 0
-300 -301 11 0
-302 -303 324 0
-302 303 108 0
-303 -31 304 0
-303 31 104 0
-304 -39 25 0
-304 39 305 0
-305 -41 306 0
-305 41 104 0
-306 -44 307 0
-306 44 308 0
-307 -56 25 0
-307 56 104 0
-308 -58 25 0
-308 58 309 0
-309 -63 310 0
-309 63 311 0
-31 32 35 0
-310 -68 25 0
-310 68 104 0
-311 -71 25 0
-311 71 312 0
-312 -75 313 0
-312 75 314 0
-313 -79 25 0
-313 79 104 0
-314 -82 315 0
-314 82 316 0
-315 -85 25 0
-315 85 104 0
-316 -87 317 0
-316 87 318 0
-317 -90 25 0
-317 90 104 0
-318 -93 319 0
-318 93 320 0
-319 -96 25 0
-319 96 104 0
-32 -33 0
-320 -99 321 0
-320 99 322 0
-321 -102 11 0
-321 102 104 0
-322 -104 323 0
-322 104 104 0
-323 -106 25 0
-323 106 104 0
-324 -325 25 0
-324 325 108 0
-325 -11 326 0
-325 -326 11 0
-327 -15 328 0
-327 15 331 0
-328 -24 25 0
-328 24 329 0
-329 -27 330 0
-329 27 331 0
-33 -18 34 0
-33 -34 18 0
-330 -30 331 0
-330 30 333 0
-331 -25 332 0
-331 -332 25 0
-333 -111 334 0
-333 111 335 0
-334 -136 331 0
-334 136 11 0
-335 -139 331 0
-335 139 336 0
-336 -162 331 0
-336 162 337 0
-337 -186 331 0
-337 186 338 0
-338 -209 339 0
-338 209 340 0
-339 -231 11 0
-339 231 331 0
-340 -234 331 0
-340 234 341 0
-341 -256 331 0
-341 256 342 0
-342 -278 343 0
-342 278 344 0
-343 -300 25 0
-343 300 331 0
-344 -303 345 0
-344 303 331 0
-345 -325 11 0
-345 325 331 0
-346 -347 348 0
-346 -348 347 0
-349 -350 387 0
-349 350 389 0
-35 -36 0
-350 351 0
-350 369 0
-351 -15 352 0
-351 15 355 0
-352 -24 25 0
-352 24 353 0
-353 -27 354 0
-353 27 355 0
-354 -30 355 0
-354 30 356 0
-355 -109 25 0
-355 -25 109 0
-356 -111 357 0
-356 111 358 0
-357 -136 355 0
-357 136 11 0
-358 -139 355 0
-358 139 359 0
-359 -162 355 0
-359 162 360 0
-36 -22 37 0
-36 -37 22 0
-360 -186 355 0
-360 186 361 0
-361 -209 362 0
-361 209 363 0
-362 -231 25 0
-362 231 355 0
-363 -234 355 0
-363 234 364 0
-364 -256 355 0
-364 256 365 0
-365 -278 366 0
-365 278 367 0
-366 -300 11 0
-366 300 355 0
-367 -303 368 0
-367 303 355 0
-368 -325 11 0
-368 325 355 0
-369 -15 370 0
-369 15 373 0
-370 -24 11 0
-370 24 371 0
-371 -27 372 0
-371 27 373 0
-372 -30 373 0
-372 30 374 0
-373 -11 332 0
-373 -332 11 0
-374 -111 375 0
-374 111 376 0
-375 -136 373 0
-375 136 25 0
-376 -139 373 0
-376 139 377 0
-377 -162 373 0
-377 162 378 0
-378 -186 373 0
-378 186 379 0
-379 -209 380 0
-379 209 381 0
-38 -39 11 0
-38 39 40 0
-380 -231 25 0
-380 231 373 0
-381 -234 373 0
-381 234 382 0
-382 -256 373 0
-382 256 383 0
-383 -278 384 0
-383 278 385 0
-384 -300 11 0
-384 300 373 0
-385 -303 386 0
-385 303 373 0
-386 -325 25 0
-386 325 373 0
-387 -347 388 0
-387 -388 347 0
-389 -390 391 0
-389 390 392 0
-39 -22 25 0
-39 -25 22 0
-390 14 0
-390 369 0
-391 -25 347 0
-391 -347 25 0
-392 -347 393 0
-392 -393 347 0
-394 -347 395 0
-394 -395 347 0
-396 -397 11 0
-396 397 401 0
-397 -11 398 0
-397 -398 11 0
-398 -399 -11 0
-398 399 11 0
-399 -400 0
-4 -5 0
-40 -41 43 0
-40 41 44 0
-401 -402 411 0
-401 402 423 0
-402 -25 403 0
-402 -403 25 0
-403 -404 -25 0
-403 404 25 0
-404 -405 -408 0
-404 405 408 0
-405 -406 -11 0
-405 406 11 0
-406 -407 0
-408 -409 -11 0
-408 409 11 0
-409 -410 0
-41 32 0
-41 42 0
-411 -412 413 0
-411 412 11 0
-412 -11 405 0
-412 -405 11 0
-413 -414 11 0
-413 414 25 0
-414 -25 415 0
-414 -415 25 0
-415 -416 -25 0
-415 416 25 0
-416 -417 -420 0
-416 417 420 0
-417 -418 -11 0
-417 418 11 0
-418 -419 0
-42 -11 18 0
-42 -18 11 0
-420 -421 -11 0
-420 421 11 0
-421 -422 0
-423 -412 25 0
-423 412 11 0
-424 -402 425 0
-424 402 432 0
-425 -412 426 0
-425 412 11 0
-426 -414 11 0
-426 414 427 0
-427 -428 11 0
-427 428 25 0
-428 -25 429 0
-428 -429 25 0
-429 -430 -11 0
-429 430 11 0
-43 -44 55 0
-43 44 57 0
-430 -431 0
-432 -412 427 0
-432 412 11 0
-44 45 0
-44 53 0
-45 46 0
-45 51 0
-46 47 0
-46 49 0
-47 -25 48 0
-47 -48 25 0
-49 -25 50 0
-49 -50 25 0
-5 -6 7 0
-5 -7 6 0
-51 -25 52 0
-51 -52 25 0
-53 -25 54 0
-53 -54 25 0
-55 -56 25 0
-55 56 44 0
-56 -11 22 0
-56 -22 11 0
-57 -58 25 0
-57 58 62 0
-58 53 0
-58 59 0
-59 51 0
-59 60 0
-60 49 0
-60 61 0
-61 -11 48 0
-61 -48 11 0
-62 -63 67 0
-62 63 70 0
-63 53 0
-63 64 0
-64 51 0
-64 65 0
-65 47 0
-65 66 0
-66 -11 50 0
-66 -50 11 0
-67 -68 25 0
-67 68 44 0
-68 -25 69 0
-68 -69 25 0
-70 -71 25 0
-70 71 74 0
-71 53 0
-71 72 0
-72 51 0
-72 73 0
-73 61 0
-73 66 0
-74 -75 78 0
-74 75 81 0
-75 53 0
-75 76 0
-76 46 0
-76 77 0
-77 -11 52 0
-77 -52 11 0
-78 -79 25 0
-78 79 44 0
-79 -25 80 0
-79 -80 25 0
-8 -9 12 0
-8 9 394 0
-81 -82 84 0
-81 82 86 0
-82 53 0
-82 83 0
-83 60 0
-83 77 0
-84 -85 25 0
-84 85 44 0
-85 -11 80 0
-85 -80 11 0
-86 -87 89 0
-86 87 92 0
-87 53 0
-87 88 0
-88 65 0
-88 77 0
-89 -90 25 0
-89 90 44 0
-9 10 0
-9 4 0
-90 -11 91 0
-90 -91 11 0
-92 -93 95 0
-92 93 98 0
-93 53 0
-93 94 0
-94 73 0
-94 77 0
-95 -96 25 0
-95 96 44 0
-96 -25 97 0
-96 -97 25 0
-98 -99 101 0
-98 99 103 0
-99 100 0
-99 45 0
1 -2 -424 0
1 0
10 -6 -11 0
10 6 11 0
100 -54 -11 0
100 54 11 0
101 -102 -25 0
101 -25 -44 0
101 102 -44 0
102 -97 -11 0
102 97 11 0
103 -104 -105 0
103 -105 -44 0
103 104 -44 0
104 -59 -100 0
105 -106 -25 0
105 -25 -44 0
105 106 -44 0
106 -107 -11 0
106 107 11 0
108 -109 -11 0
108 109 11 0
11 0
110 -111 -135 0
110 -135 -138 0
110 111 -138 0
111 -112 -58 0
111 -31 -112 0
111 31 -58 0
112 -25 -113 0
112 -39 -25 0
112 39 -113 0
113 -114 -58 0
113 -41 -114 0
113 41 -58 0
114 -115 -116 0
114 -44 -115 0
114 44 -116 0
115 -11 -58 0
115 -56 -11 0
115 56 -58 0
116 -117 -120 0
116 -58 -117 0
116 58 -120 0
117 -118 -25 0
117 -25 -11 0
117 118 -11 0
118 -119 -11 0
118 119 11 0
12 -13 -346 0
12 -346 -349 0
12 13 -349 0
120 -121 -122 0
120 -63 -121 0
120 63 -122 0
121 -25 -58 0
121 -68 -25 0
121 68 -58 0
122 -25 -123 0
122 -71 -25 0
122 71 -123 0
123 -124 -125 0
123 -75 -124 0
123 75 -125 0
124 -25 -58 0
124 -79 -25 0
124 79 -58 0
125 -126 -127 0
125 -82 -126 0
125 82 -127 0
126 -25 -58 0
126 -85 -25 0
126 85 -58 0
127 -128 -129 0
127 -87 -128 0
127 87 -129 0
128 -25 -58 0
128 -90 -25 0
128 90 -58 0
129 -130 -131 0
129 -93 -130 0
129 93 -131 0
13 -14 -327 0
130 -25 -58 0
130 -96 -25 0
130 96 -58 0
131 -132 -133 0
131 -99 -132 0
131 99 -133 0
132 -102 -25 0
132 -25 -58 0
132 102 -58 0
133 -104 -134 0
133 -134 -58 0
133 104 -58 0
134 -106 -25 0
134 -25 -58 0
134 106 -58 0
135 -108 -25 0
135 -136 -108 0
135 136 -25 0
136 -137 -11 0
136 137 11 0
138 -108 -161 0
138 -139 -108 0
138 139 -161 0
139 -140 -63 0
139 -31 -140 0
139 31 -63 0
14 -15 -23 0
14 -23 -108 0
14 15 -108 0
140 -25 -141 0
140 -39 -25 0
140 39 -141 0
141 -142 -63 0
141 -41 -142 0
141 41 -63 0
142 -143 -144 0
142 -44 -143 0
142 44 -144 0
143 -25 -63 0
143 -56 -25 0
143 56 -63 0
144 -145 -146 0
144 -58 -145 0
144 58 -146 0
145 -11 -25 0
145 -118 -11 0
145 118 -25 0
146 -147 -148 0
146 -63 -147 0
146 63 -148 0
147 -25 -63 0
147 -68 -25 0
147 68 -63 0
148 -25 -149 0
148 -71 -25 0
148 71 -149 0
149 -150 -151 0
149 -75 -150 0
149 75 -151 0
15 -16 0
15 -19 0
150 -25 -63 0
150 -79 -25 0
150 79 -63 0
151 -152 -153 0
151 -82 -152 0
151 82 -153 0
152 -25 -63 0
152 -85 -25 0
152 85 -63 0
153 -154 -155 0
153 -87 -154 0
153 87 -155 0
154 -25 -63 0
154 -90 -25 0
154 90 -63 0
155 -156 -157 0
155 -93 -156 0
155 93 -157 0
156 -25 -63 0
156 -96 -25 0
156 96 -63 0
157 -158 -159 0
157 -99 -158 0
157 99 -159 0
158 -102 -25 0
158 -25 -63 0
158 102 -63 0
159 -104 -160 0
159 -160 -63 0
159 104 -63 0
16 17 0
160 -106 -11 0
160 -11 -63 0
160 106 -63 0
161 -108 -185 0
161 -162 -108 0
161 162 -185 0
162 -163 -71 0
162 -31 -163 0
162 31 -71 0
163 -25 -164 0
163 -39 -25 0
163 39 -164 0
164 -165 -71 0
164 -41 -165 0
164 41 -71 0
165 -166 -167 0
165 -44 -166 0
165 44 -167 0
166 -25 -71 0
166 -56 -25 0
166 56 -71 0
167 -25 -168 0
167 -58 -25 0
167 58 -168 0
168 -169 -170 0
168 -63 -169 0
168 63 -170 0
169 -11 -71 0
169 -68 -11 0
169 68 -71 0
17 -7 -18 0
17 7 18 0
170 -171 -173 0
170 -71 -171 0
170 71 -173 0
171 -172 -25 0
171 -25 -11 0
171 172 -11 0
172 -69 -11 0
172 69 11 0
173 -174 -175 0
173 -75 -174 0
173 75 -175 0
174 -25 -71 0
174 -79 -25 0
174 79 -71 0
175 -176 -177 0
175 -82 -176 0
175 82 -177 0
176 -25 -71 0
176 -85 -25 0
176 85 -71 0
177 -178 -179 0
177 -87 -178 0
177 87 -179 0
178 -25 -71 0
178 -90 -25 0
178 90 -71 0
179 -180 -181 0
179 -93 -180 0
179 93 -181 0
180 -25 -71 0
180 -96 -25 0
180 96 -71 0
181 -182 -183 0
181 -99 -182 0
181 99 -183 0
182 -102 -25 0
182 -25 -71 0
182 102 -71 0
183 -104 -184 0
183 -184 -71 0
183 104 -71 0
184 -106 -25 0
184 -25 -71 0
184 106 -71 0
185 -108 -208 0
185 -186 -108 0
185 186 -208 0
186 -187 -75 0
186 -31 -187 0
186 31 -75 0
187 -25 -188 0
187 -39 -25 0
187 39 -188 0
188 -189 -75 0
188 -41 -189 0
188 41 -75 0
189 -190 -191 0
189 -44 -190 0
189 44 -191 0
19 20 0
190 -25 -75 0
190 -56 -25 0
190 56 -75 0
191 -25 -192 0
191 -58 -25 0
191 58 -192 0
192 -193 -194 0
192 -63 -193 0
192 63 -194 0
193 -25 -75 0
193 -68 -25 0
193 68 -75 0
194 -195 -196 0
194 -71 -195 0
194 71 -196 0
195 -11 -25 0
195 -172 -11 0
195 172 -25 0
196 -197 -198 0
196 -75 -197 0
196 75 -198 0
197 -25 -75 0
197 -79 -25 0
197 79 -75 0
198 -199 -200 0
198 -82 -199 0
198 82 -200 0
199 -25 -75 0
199 -85 -25 0
199 85 -75 0
2 -3 -396 0
20 -21 -22 0
20 21 22 0
200 -201 -202 0
200 -87 -201 0
200 87 -202 0
201 -25 -75 0
201 -90 -25 0
201 90 -75 0
202 -203 -204 0
202 -93 -203 0
202 93 -204 0
203 -25 -75 0
203 -96 -25 0
203 96 -75 0
204 -205 -206 0
204 -99 -205 0
204 99 -206 0
205 -102 -25 0
205 -25 -75 0
205 102 -75 0
206 -104 -207 0
206 -207 -75 0
206 104 -75 0
207 -106 -25 0
207 -25 -75 0
207 106 -75 0
208 -209 -230 0
208 -230 -233 0
208 209 -233 0
209 -210 -82 0
209 -31 -210 0
209 31 -82 0
210 -25 -211 0
210 -39 -25 0
210 39 -211 0
211 -212 -82 0
211 -41 -212 0
211 41 -82 0
212 -213 -214 0
212 -44 -213 0
212 44 -214 0
213 -25 -82 0
213 -56 -25 0
213 56 -82 0
214 -25 -215 0
214 -58 -25 0
214 58 -215 0
215 -216 -217 0
215 -63 -216 0
215 63 -217 0
216 -25 -82 0
216 -68 -25 0
216 68 -82 0
217 -25 -218 0
217 -71 -25 0
217 71 -218 0
218 -219 -220 0
218 -75 -219 0
218 75 -220 0
219 -11 -82 0
219 -79 -11 0
219 79 -82 0
220 -221 -222 0
220 -82 -221 0
220 82 -222 0
221 -25 -82 0
221 -85 -25 0
221 85 -82 0
222 -223 -224 0
222 -87 -223 0
222 87 -224 0
223 -25 -82 0
223 -90 -25 0
223 90 -82 0
224 -225 -226 0
224 -93 -225 0
224 93 -226 0
225 -25 -82 0
225 -96 -25 0
225 96 -82 0
226 -227 -228 0
226 -99 -227 0
226 99 -228 0
227 -102 -25 0
227 -25 -82 0
227 102 -82 0
228 -104 -229 0
228 -229 -82 0
228 104 -82 0
229 -106 -25 0
229 -25 -82 0
229 106 -82 0
23 -11 -26 0
23 -24 -11 0
23 24 -26 0
230 -11 -108 0
230 -231 -11 0
230 231 -108 0
231 -232 -11 0
231 232 11 0
233 -108 -255 0
233 -234 -108 0
233 234 -255 0
234 -235 -87 0
234 -31 -235 0
234 31 -87 0
235 -25 -236 0
235 -39 -25 0
235 39 -236 0
236 -237 -87 0
236 -41 -237 0
236 41 -87 0
237 -238 -239 0
237 -44 -238 0
237 44 -239 0
238 -25 -87 0
238 -56 -25 0
238 56 -87 0
239 -25 -240 0
239 -58 -25 0
239 58 -240 0
24 -21 -25 0
24 21 25 0
240 -241 -242 0
240 -63 -241 0
240 63 -242 0
241 -25 -87 0
241 -68 -25 0
241 68 -87 0
242 -25 -243 0
242 -71 -25 0
242 71 -243 0
243 -244 -245 0
243 -75 -244 0
243 75 -245 0
244 -25 -87 0
244 -79 -25 0
244 79 -87 0
245 -246 -247 0
245 -82 -246 0
245 82 -247 0
246 -11 -87 0
246 -85 -11 0
246 85 -87 0
247 -248 -249 0
247 -87 -248 0
247 87 -249 0
248 -25 -87 0
248 -90 -25 0
248 90 -87 0
249 -250 -251 0
249 -93 -250 0
249 93 -251 0
250 -25 -87 0
250 -96 -25 0
250 96 -87 0
251 -252 -253 0
251 -99 -252 0
251 99 -253 0
252 -102 -25 0
252 -25 -87 0
252 102 -87 0
253 -104 -254 0
253 -254 -87 0
253 104 -87 0
254 -106 -25 0
254 -25 -87 0
254 106 -87 0
255 -108 -277 0
255 -256 -108 0
255 256 -277 0
256 -257 -93 0
256 -31 -257 0
256 31 -93 0
257 -25 -258 0
257 -39 -25 0
257 39 -258 0
258 -259 -93 0
258 -41 -259 0
258 41 -93 0
259 -260 -261 0
259 -44 -260 0
259 44 -261 0
26 -27 -29 0
26 -29 -108 0
26 27 -108 0
260 -25 -93 0
260 -56 -25 0
260 56 -93 0
261 -25 -262 0
261 -58 -25 0
261 58 -262 0
262 -263 -264 0
262 -63 -263 0
262 63 -264 0
263 -25 -93 0
263 -68 -25 0
263 68 -93 0
264 -25 -265 0
264 -71 -25 0
264 71 -265 0
265 -266 -267 0
265 -75 -266 0
265 75 -267 0
266 -25 -93 0
266 -79 -25 0
266 79 -93 0
267 -268 -269 0
267 -82 -268 0
267 82 -269 0
268 -25 -93 0
268 -85 -25 0
268 85 -93 0
269 -270 -271 0
269 -87 -270 0
269 87 -271 0
27 -16 -28 0
270 -11 -93 0
270 -90 -11 0
270 90 -93 0
271 -272 -273 0
271 -93 -272 0
271 93 -273 0
272 -25 -93 0
272 -96 -25 0
272 96 -93 0
273 -274 -275 0
273 -99 -274 0
273 99 -275 0
274 -102 -25 0
274 -25 -93 0
274 102 -93 0
275 -104 -276 0
275 -276 -93 0
275 104 -93 0
276 -106 -25 0
276 -25 -93 0
276 106 -93 0
277 -278 -299 0
277 -299 -302 0
277 278 -302 0
278 -279 -99 0
278 -31 -279 0
278 31 -99 0
279 -25 -280 0
279 -39 -25 0
279 39 -280 0
28 -7 -11 0
28 7 11 0
280 -281 -99 0
280 -41 -281 0
280 41 -99 0
281 -282 -283 0
281 -44 -282 0
281 44 -283 0
282 -25 -99 0
282 -56 -25 0
282 56 -99 0
283 -25 -284 0
283 -58 -25 0
283 58 -284 0
284 -285 -286 0
284 -63 -285 0
284 63 -286 0
285 -25 -99 0
285 -68 -25 0
285 68 -99 0
286 -25 -287 0
286 -71 -25 0
286 71 -287 0
287 -288 -289 0
287 -75 -288 0
287 75 -289 0
288 -25 -99 0
288 -79 -25 0
288 79 -99 0
289 -290 -291 0
289 -82 -290 0
289 82 -291 0
29 -108 -110 0
29 -30 -108 0
29 30 -110 0
290 -25 -99 0
290 -85 -25 0
290 85 -99 0
291 -292 -293 0
291 -87 -292 0
291 87 -293 0
292 -25 -99 0
292 -90 -25 0
292 90 -99 0
293 -294 -295 0
293 -93 -294 0
293 93 -295 0
294 -11 -99 0
294 -96 -11 0
294 96 -99 0
295 -296 -297 0
295 -99 -296 0
295 99 -297 0
296 -102 -25 0
296 -25 -99 0
296 102 -99 0
297 -104 -298 0
297 -298 -99 0
297 104 -99 0
298 -106 -25 0
298 -25 -99 0
298 106 -99 0
299 -25 -108 0
299 -300 -25 0
299 300 -108 0
3 -4 -8 0
3 -8 -394 0
3 4 -394 0
30 -31 -38 0
30 -38 -44 0
30 31 -44 0
300 -301 -11 0
300 301 11 0
302 -303 -324 0
302 -324 -108 0
302 303 -108 0
303 -304 -104 0
303 -31 -304 0
303 31 -104 0
304 -25 -305 0
304 -39 -25 0
304 39 -305 0
305 -306 -104 0
305 -41 -306 0
305 41 -104 0
306 -307 -308 0
306 -44 -307 0
306 44 -308 0
307 -25 -104 0
307 -56 -25 0
307 56 -104 0
308 -25 -309 0
308 -58 -25 0
308 58 -309 0
309 -310 -311 0
309 -63 -310 0
309 63 -311 0
31 -32 0
31 -35 0
310 -25 -104 0
310 -68 -25 0
310 68 -104 0
311 -25 -312 0
311 -71 -25 0
311 71 -312 0
312 -313 -314 0
312 -75 -313 0
312 75 -314 0
313 -25 -104 0
313 -79 -25 0
313 79 -104 0
314 -315 -316 0
314 -82 -315 0
314 82 -316 0
315 -25 -104 0
315 -85 -25 0
315 85 -104 0
316 -317 -318 0
316 -87 -317 0
316 87 -318 0
317 -25 -104 0
317 -90 -25 0
317 90 -104 0
318 -319 -320 0
318 -93 -319 0
318 93 -320 0
319 -25 -104 0
319 -96 -25 0
319 96 -104 0
32 33 0
320 -321 -322 0
320 -99 -321 0
320 99 -322 0
321 -102 -11 0
321 -11 -104 0
321 102 -104 0
322 -104 -323 0
322 -323 -104 0
322 104 -104 0
323 -106 -25 0
323 -25 -104 0
323 106 -104 0
324 -25 -108 0
324 -325 -25 0
324 325 -108 0
325 -326 -11 0
325 326 11 0
327 -15 -328 0
327 -328 -331 0
327 15 -331 0
328 -24 -25 0
328 -25 -329 0
328 24 -329 0
329 -27 -330 0
329 -330 -331 0
329 27 -331 0
33 -18 -34 0
33 18 34 0
330 -30 -331 0
330 -331 -333 0
330 30 -333 0
331 -332 -25 0
331 332 25 0
333 -111 -334 0
333 -334 -335 0
333 111 -335 0
334 -136 -331 0
334 -331 -11 0
334 136 -11 0
335 -139 -331 0
335 -331 -336 0
335 139 -336 0
336 -162 -331 0
336 -331 -337 0
336 162 -337 0
337 -186 -331 0
337 -331 -338 0
337 186 -338 0
338 -209 -339 0
338 -339 -340 0
338 209 -340 0
339 -11 -331 0
339 -231 -11 0
339 231 -331 0
340 -234 -331 0
340 -331 -341 0
340 234 -341 0
341 -256 -331 0
341 -331 -342 0
341 256 -342 0
342 -278 -343 0
342 -343 -344 0
342 278 -344 0
343 -25 -331 0
343 -300 -25 0
343 300 -331 0
344 -303 -345 0
344 -345 -331 0
344 303 -331 0
345 -11 -331 0
345 -325 -11 0
345 325 -331 0
346 -347 -348 0
346 347 348 0
349 -350 -387 0
349 -387 -389 0
349 350 -389 0
35 36 0
350 -351 -369 0
351 -15 -352 0
351 -352 -355 0
351 15 -355 0
352 -24 -25 0
352 -25 -353 0
352 24 -353 0
353 -27 -354 0
353 -354 -355 0
353 27 -355 0
354 -30 -355 0
354 -355 -356 0
354 30 -356 0
355 -109 -25 0
355 109 25 0
356 -111 -357 0
356 -357 -358 0
356 111 -358 0
357 -136 -355 0
357 -355 -11 0
357 136 -11 0
358 -139 -355 0
358 -355 -359 0
358 139 -359 0
359 -162 -355 0
359 -355 -360 0
359 162 -360 0
36 -22 -37 0
36 22 37 0
360 -186 -355 0
360 -355 -361 0
360 186 -361 0
361 -209 -362 0
361 -362 -363 0
361 209 -363 0
362 -231 -25 0
362 -25 -355 0
362 231 -355 0
363 -234 -355 0
363 -355 -364 0
363 234 -364 0
364 -256 -355 0
364 -355 -365 0
364 256 -365 0
365 -278 -366 0
365 -366 -367 0
365 278 -367 0
366 -11 -355 0
366 -300 -11 0
366 300 -355 0
367 -303 -368 0
367 -368 -355 0
367 303 -355 0
368 -11 -355 0
368 -325 -11 0
368 325 -355 0
369 -15 -370 0
369 -370 -373 0
369 15 -373 0
370 -11 -371 0
370 -24 -11 0
370 24 -371 0
371 -27 -372 0
371 -372 -373 0
371 27 -373 0
372 -30 -373 0
372 -373 -374 0
372 30 -374 0
373 -332 -11 0
373 332 11 0
374 -111 -375 0
374 -375 -376 0
374 111 -376 0
375 -136 -373 0
375 -373 -25 0
375 136 -25 0
376 -139 -373 0
376 -373 -377 0
376 139 -377 0
377 -162 -373 0
377 -373 -378 0
377 162 -378 0
378 -186 -373 0
378 -373 -379 0
378 186 -379 0
379 -209 -380 0
379 -380 -381 0
379 209 -381 0
38 -11 -40 0
38 -39 -11 0
38 39 -40 0
380 -231 -25 0
380 -25 -373 0
380 231 -373 0
381 -234 -373 0
381 -373 -382 0
381 234 -382 0
382 -256 -373 0
382 -373 -383 0
382 256 -383 0
383 -278 -384 0
383 -384 -385 0
383 278 -385 0
384 -11 -373 0
384 -300 -11 0
384 300 -373 0
385 -303 -386 0
385 -386 -373 0
385 303 -373 0
386 -25 -373 0
386 -325 -25 0
386 325 -373 0
387 -347 -388 0
387 347 388 0
389 -390 -391 0
389 -391 -392 0
389 390 -392 0
39 -22 -25 0
39 22 25 0
390 -14 -369 0
391 -347 -25 0
391 347 25 0
392 -347 -393 0
392 347 393 0
394 -347 -395 0
394 347 395 0
396 -11 -401 0
396 -397 -11 0
396 397 -401 0
397 -398 -11 0
397 398 11 0
398 -11 399 0
398 -399 11 0
399 400 0
4 5 0
40 -41 -43 0
40 -43 -44 0
40 41 -44 0
401 -402 -411 0
401 -411 -423 0
401 402 -423 0
402 -403 -25 0
402 403 25 0
403 -25 404 0
403 -404 25 0
404 -405 408 0
404 -408 405 0
405 -11 406 0
405 -406 11 0
406 407 0
408 -11 409 0
408 -409 11 0
409 410 0
41 -32 -42 0
411 -412 -413 0
411 -413 -11 0
411 412 -11 0
412 -405 -11 0
412 405 11 0
413 -11 -25 0
413 -414 -11 0
413 414 -25 0
414 -415 -25 0
414 415 25 0
415 -25 416 0
415 -416 25 0
416 -417 420 0
416 -420 417 0
417 -11 418 0
417 -418 11 0
418 419 0
42 -18 -11 0
42 18 11 0
420 -11 421 0
420 -421 11 0
421 422 0
423 -25 -11 0
423 -412 -25 0
423 412 -11 0
424 -402 -425 0
424 -425 -432 0
424 402 -432 0
425 -412 -426 0
425 -426 -11 0
425 412 -11 0
426 -11 -427 0
426 -414 -11 0
426 414 -427 0
427 -11 -25 0
427 -428 -11 0
427 428 -25 0
428 -429 -25 0
428 429 25 0
429 -11 430 0
429 -430 11 0
43 -44 -55 0
43 -55 -57 0
43 44 -57 0
430 431 0
432 -412 -427 0
432 -427 -11 0
432 412 -11 0
44 -45 -53 0
45 -46 -51 0
46 -47 -49 0
47 -48 -25 0
47 48 25 0
49 -50 -25 0
49 50 25 0
5 -6 -7 0
5 6 7 0
51 -52 -25 0
51 52 25 0
53 -54 -25 0
53 54 25 0
55 -25 -44 0
55 -56 -25 0
55 56 -44 0
56 -22 -11 0
56 22 11 0
57 -25 -62 0
57 -58 -25 0
57 58 -62 0
58 -59 -53 0
59 -60 -51 0
60 -61 -49 0
61 -48 -11 0
61 48 11 0
62 -63 -67 0
62 -67 -70 0
62 63 -70 0
63 -64 -53 0
64 -65 -51 0
65 -47 -66 0
66 -50 -11 0
66 50 11 0
67 -25 -44 0
67 -68 -25 0
67 68 -44 0
68 -69 -25 0
68 69 25 0
70 -25 -74 0
70 -71 -25 0
70 71 -74 0
71 -72 -53 0
72 -73 -51 0
73 -61 -66 0
74 -75 -78 0
74 -78 -81 0
74 75 -81 0
75 -76 -53 0
76 -46 -77 0
77 -52 -11 0
77 52 11 0
78 -25 -44 0
78 -79 -25 0
78 79 -44 0
79 -80 -25 0
79 80 25 0
8 -12 -394 0
8 -9 -12 0
8 9 -394 0
81 -82 -84 0
81 -84 -86 0
81 82 -86 0
82 -83 -53 0
83 -60 -77 0
84 -25 -44 0
84 -85 -25 0
84 85 -44 0
85 -80 -11 0
85 80 11 0
86 -87 -89 0
86 -89 -92 0
86 87 -92 0
87 -88 -53 0
88 -65 -77 0
89 -25 -44 0
89 -90 -25 0
89 90 -44 0
9 -4 -10 0
90 -91 -11 0
90 91 11 0
92 -93 -95 0
92 -95 -98 0
92 93 -98 0
93 -94 -53 0
94 -73 -77 0
95 -25 -44 0
95 -96 -25 0
95 96 -44 0
96 -97 -25 0
96 97 25 0
98 -101 -103 0
98 -99 -101 0
98 99 -103 0
99 -45 -100 0
